10	5
0	5	4	2	1	3	5
1	2	9	6
2	3	7	9	10
3	4	10	7	8	9
4	2	10	9
5	1	9
6	1	8
7	1	11
8	1	11
9	1	11
10	1	11
11	0
0	0	0	0	0	0	0
1	10	1	4	2	5	5
2	10	0	0	0	1	4
3	3	1	1	0	3	0
4	8	1	2	1	4	3
5	9	0	4	2	0	1
6	8	2	5	3	1	2
7	9	1	0	0	1	0
8	2	4	5	0	3	2
9	7	0	1	3	4	1
10	2	3	3	2	1	3
11	0	0	0	0	0	0
4	5	5	5	5
